0 33 39
1 36 46
2 41 46
3 42 47
4 39 47
5 42 46
6 40 44
7 38 45
8 24 45
9 40 47
10 39 45
11 39 46
12 45 47
13 43 47
14 34 44
15 35 43
16 30 44
17 25 41
18 31 37
19 24 35
20 19 35
21 27 32
22 13 30
23 28 29
24 16 27
25 16 27
26 17 23
27 12 19
28 14 17
29 6 17
30 5 14
31 6 11
32 8 10
33 9 10
34 7 9
35 7 6
36 2 6
37 1 3
38 2 1
39 3 2
40 1 1
41 1 0
42 2 1
43 1 0
44 2 1
45 1 0
46 2 1
47 1 0
48 2 1
49 1 0
50 1 1
51 1 1
52 1 1
53 1 2
54 1 1

